76
125
87	4
86	7
85	4
84	7
83	5
82	7
81	3
80	2
79	4
78	6
77	9
76	3
75	1
74	4
73	5
72	2
71	3
70	4
69	5
68	6
67	10
66	2
65	3
64	5
63	6
62	7
61	7
60	6
59	8
58	3
57	5
56	3
55	3
54	9
53	5
52	3
51	5
50	6
49	7
48	3
47	7
46	5
45	4
44	9
43	11
42	4
41	6
40	9
39	4
38	2
37	2
36	2
35	12
34	5
33	5
32	5
31	5
30	7
29	7
28	4
27	8
26	6
25	6
24	8
23	6
22	4
21	3
20	6
19	5
18	4
17	5
16	5
15	4
14	3
13	9
12	6
